(assert
(let ((.cse39 (- 1 )) (.cse40 (- 2 )) ) (let ((.cse9 (= (+ x_119_2 (- x_127_1 ) ) 0 )) (.cse10 (= (+ x_28_5 .cse40 ) 0 )) (.cse11 (= x_114_1 0 )) (.cse29 (<= (+ x_74_1 .cse39 ) 0 )) (.cse32 (<= (+ x_78_2 .cse39 ) 0 )) (.cse8 (<= x_75_0 0 )) (.cse3 (<= 0 x_75_0 )) (.cse15 (<= x_21_1 .cse39 )) (.cse16 (<= 0 (+ x_21_1 1 ) )) (.cse26 (<= 0 x_11_1 )) (.cse23 (<= x_11_1 0 )) (.cse27 (<= 0 (+ x_66_1 x_74_1 .cse39 ) )) (.cse28 (<= (+ x_66_1 x_74_1 ) 1 )) (.cse24 (<= 0 (+ x_17_2 .cse40 ) )) (.cse25 (<= x_17_2 2 )) (.cse0 (<= 0 (+ x_128_1 (- 4 ) ) )) (.cse30 (<= 0 (+ x_18_1 1 ) )) (.cse31 (<= x_18_1 .cse39 )) (.cse12 (<= x_129_2 1 )) (.cse13 (let ((.cse38 (- x_129_2 )) ) (ite (<= (+ x_124_2 .cse38 1 ) 0 ) (<= x_129_2 x_124_2 ) (or (<= (+ x_124_2 .cse38 ) 0 ) (<= x_124_2 x_129_2 ) ) ))) (.cse33 (ite (<= (+ x_78_2 (- x_77_1 ) 1 ) 0 ) (<= x_77_1 x_78_2 ) (<= x_78_2 x_77_1 ) )) (.cse37 (<= x_74_1 0 )) ) (let ((.cse2 (and .cse9 (and .cse10 (and .cse11 (ite .cse29 (and .cse32 (and .cse8 .cse3 .cse15 .cse16 .cse26 .cse23 .cse27 .cse28 .cse24 .cse25 .cse0 .cse30 .cse31 .cse37 .cse12 .cse13 .cse33 ) ) .cse37 ) ) ) )) ) (let ((.cse14 (or (ite (<= (+ (- x_119_2 ) x_127_1 1 ) 0 ) (<= x_119_2 x_127_1 ) (<= x_127_1 x_119_2 ) ) .cse2 )) ) (let ((.cse1 (and (not .cse9 ) .cse14 )) ) (let ((.cse6 (or .cse37 .cse1 .cse2 )) ) (let ((.cse4 (ite .cse29 (let ((.cse36 (ite .cse29 (or .cse1 .cse2 ) .cse6 )) (.cse35 (and (not .cse29 ) .cse6 )) ) (or (and (or (and .cse30 .cse31 (ite .cse29 (let ((.cse34 (ite .cse29 (or .cse36 .cse35 ) .cse6 )) ) (ite .cse32 (or .cse33 .cse34 .cse35 ) (or .cse34 .cse35 ) )) .cse6 ) ) .cse36 .cse35 ) (or .cse29 .cse6 ) ) .cse36 .cse35 )) .cse6 )) (.cse5 (or (and .cse27 .cse6 (or .cse27 .cse1 .cse2 ) (or .cse28 .cse1 .cse2 ) ) .cse1 .cse2 )) (.cse7 (or (let ((.cse18 (or .cse26 .cse1 .cse2 )) (.cse19 (or .cse23 .cse1 .cse2 )) ) (let ((.cse20 (or (and .cse26 (or (and .cse23 .cse19 .cse18 ) .cse1 .cse2 ) .cse18 .cse19 ) .cse1 .cse2 )) ) (let ((.cse21 (or (and .cse24 .cse18 .cse19 .cse20 ) .cse1 .cse2 )) ) (and (or (let ((.cse17 (or (and .cse26 .cse19 .cse18 ) .cse1 .cse2 )) (.cse22 (or (and .cse23 .cse19 .cse18 .cse21 ) .cse1 .cse2 )) ) (and .cse15 .cse16 .cse17 .cse18 .cse19 .cse20 .cse21 .cse22 (or (and .cse23 .cse19 .cse18 .cse20 .cse21 .cse17 .cse22 ) .cse1 .cse2 ) (or (and (or (and .cse24 .cse25 .cse18 .cse19 .cse20 ) .cse1 .cse2 ) .cse21 .cse18 .cse19 ) .cse1 .cse2 ) )) .cse1 .cse2 ) .cse21 .cse18 .cse19 )))) .cse1 .cse2 )) ) (and (or .cse0 .cse1 .cse2 ) (or (and .cse3 .cse4 .cse5 .cse6 .cse7 ) .cse1 .cse2 ) (or (and .cse8 .cse4 .cse5 .cse6 .cse7 ) .cse1 .cse2 ) .cse5 .cse6 .cse7 (or (ite .cse9 (or (and .cse10 (and .cse11 (and .cse12 .cse13 ) ) ) .cse2 .cse1 ) .cse14 ) .cse1 .cse2 ) ))))))))
)
